     Program PWSCF v.6.4.1 starts on 26May2021 at 11:31:27

     Reading input from fe.pwi
Warning: card &IONS ignored
Warning: card / ignored
Warning: card &CELL ignored
Warning: card / ignored

     Current dimensions of program PWSCF are:
     Max number of different atomic species (ntypx) = 10
     Max number of k-points (npk) =  40000
     Max angular momentum in pseudopotentials (lmaxx) =  3

     Subspace diagonalization in iterative solution of the eigenvalue problem:
     a serial algorithm will be used

     Message from routine setup:
     DEPRECATED: symmetry with ibrav=0, use correct ibrav instead

     bravais-lattice index     =            0
     lattice parameter (alat)  =       4.6969  a.u.
     unit-cell volume          =      79.7650 (a.u.)^3
     number of atoms/cell      =            1
     number of atomic types    =            1
     number of electrons       =        16.00
     number of Kohn-Sham states=           12
     kinetic-energy cutoff     =      40.0000  Ry
     charge density cutoff     =     160.0000  Ry
     convergence threshold     =      1.0E-06
     mixing beta               =       0.7000
     number of iterations used =            8  plain     mixing
     Exchange-correlation      = PBE ( 1  4  3  4 0 0)

     celldm(1)=   4.696901  celldm(2)=   0.000000  celldm(3)=   0.000000
     celldm(4)=   0.000000  celldm(5)=   0.000000  celldm(6)=   0.000000

     crystal axes: (cart. coord. in units of alat)
               a(1) = (  -0.577350   0.577350   0.577350 )
               a(2) = (   0.577350  -0.577350   0.577350 )
               a(3) = (   0.577350   0.577350  -0.577350 )

     reciprocal axes: (cart. coord. in units 2 pi/alat)
               b(1) = (  0.000000  0.866025  0.866025 )
               b(2) = (  0.866025  0.000000  0.866025 )
               b(3) = (  0.866025  0.866025  0.000000 )

     PseudoPot. # 1 for Fe read from file:
     /home/xing/datas/pseudo/Fe.pbe-spn-rrkjus_psl.1.0.0.UPF
     MD5 check sum: 72ea77fed8e64ab3a2ccf2804dfc1862
     Pseudo is Ultrasoft + core correction, Zval = 16.0
     Generated using "atomic" code by A. Dal Corso v.6.3
     Using radial grid of 1191 points,  6 beta functions with:
                l(1) =   0
                l(2) =   0
                l(3) =   1
                l(4) =   1
                l(5) =   2
                l(6) =   2
     Q(r) pseudized with 0 coefficients

     atomic species   valence    mass     pseudopotential
        Fe            16.00    55.84500     Fe( 1.00)

     48 Sym. Ops., with inversion, found

                                    s                        frac. trans.

      isym =  1     identity

 cryst.   s( 1) = (     1          0          0      )
                  (     0          1          0      )
                  (     0          0          1      )

 cart.    s( 1) = (  1.0000000  0.0000000  0.0000000 )
                  (  0.0000000  1.0000000  0.0000000 )
                  (  0.0000000  0.0000000  1.0000000 )

      isym =  2     180 deg rotation - cart. axis [0,0,1]

[...]

 cryst.   s( 9) = (    -1          0          0      )
                  (     1          1          1      )
                  (     0          0         -1      )

 cart.    s( 9) = (  0.0000000  0.0000000  1.0000000 )
                  (  0.0000000 -1.0000000  0.0000000 )
                  (  1.0000000  0.0000000  0.0000000 )

[...]

 cryst.   s(10) = (     0          0         -1      )
                  (     0         -1          0      )
                  (    -1          0          0      )

 cart.    s(10) = (  0.0000000  0.0000000 -1.0000000 )
                  (  0.0000000 -1.0000000  0.0000000 )
                  ( -1.0000000  0.0000000  0.0000000 )

[...]

      isym = 24     120 deg rotation - cart. axis [-1,-1,1]

[...]

      isym = 25     inversion

[...]

      isym = 26     inv. 180 deg rotation - cart. axis [0,0,1]

[...]

      isym = 48     inv. 120 deg rotation - cart. axis [-1,-1,1]

 cryst.   s(48) = (     1          1          1      )
                  (    -1          0          0      )
                  (     0          0         -1      )

 cart.    s(48) = (  0.0000000  0.0000000  1.0000000 )
                  ( -1.0000000  0.0000000  0.0000000 )
                  (  0.0000000  1.0000000  0.0000000 )

   Cartesian axes

     site n.     atom                  positions (alat units)
         1           Fe  tau(   1) = (   0.0000000   0.0000000   0.0000000  )

   Crystallographic axes

     site n.     atom                  positions (cryst. coord.)
         1           Fe  tau(   1) = (  0.0000000  0.0000000  0.0000000  )

     number of k points=    16  gaussian smearing, width (Ry)=  0.0200
                       cart. coord. in units 2pi/alat
        k(    1) = (   0.0000000   0.0000000   0.0000000), wk =   0.0092593
        k(    2) = (   0.1443376   0.1443376   0.0000000), wk =   0.1111111
        k(    3) = (   0.2886751   0.2886751   0.0000000), wk =   0.1111111
        k(    4) = (  -0.4330127  -0.4330127   0.0000000), wk =   0.0555556
        k(    5) = (   0.2886751   0.1443376   0.1443376), wk =   0.2222222
        k(    6) = (   0.4330127   0.2886751   0.1443376), wk =   0.4444444
        k(    7) = (   0.5773503   0.2886751   0.2886751), wk =   0.0740741
        k(    8) = (   0.2886751   0.2886751   0.2886751), wk =   0.0740741
        k(    9) = (   0.4330127   0.4330127   0.2886751), wk =   0.1111111
        k(   10) = (   0.0000000   0.0000000   0.2886751), wk =   0.0555556
        k(   11) = (  -0.0000000  -0.1443376   0.4330127), wk =   0.2222222
        k(   12) = (  -0.8660254  -0.2886751  -0.2886751), wk =   0.1111111
        k(   13) = (  -0.7216878  -0.1443376  -0.2886751), wk =   0.2222222
        k(   14) = (  -0.0000000  -0.0000000   0.5773503), wk =   0.0555556
        k(   15) = (  -0.8660254  -0.1443376  -0.1443376), wk =   0.1111111
        k(   16) = (  -0.8660254  -0.8660254  -0.8660254), wk =   0.0092593

                       cryst. coord.
        k(    1) = (   0.0000000   0.0000000   0.0000000), wk =   0.0092593
        k(    2) = (   0.0000000   0.0000000   0.1666667), wk =   0.1111111
        k(    3) = (   0.0000000   0.0000000   0.3333333), wk =   0.1111111
        k(    4) = (   0.0000000   0.0000000  -0.5000000), wk =   0.0555556
        k(    5) = (   0.0000000   0.1666667   0.1666667), wk =   0.2222222
        k(    6) = (   0.0000000   0.1666667   0.3333333), wk =   0.4444444
        k(    7) = (   0.0000000   0.3333333   0.3333333), wk =   0.0740741
        k(    8) = (   0.1666667   0.1666667   0.1666667), wk =   0.0740741
        k(    9) = (   0.1666667   0.1666667   0.3333333), wk =   0.1111111
        k(   10) = (   0.1666667   0.1666667  -0.1666667), wk =   0.0555556
        k(   11) = (   0.1666667   0.3333333  -0.3333333), wk =   0.2222222
        k(   12) = (   0.1666667  -0.5000000  -0.5000000), wk =   0.1111111
        k(   13) = (   0.1666667  -0.5000000  -0.3333333), wk =   0.2222222
        k(   14) = (   0.3333333   0.3333333  -0.3333333), wk =   0.0555556
        k(   15) = (   0.3333333  -0.5000000  -0.5000000), wk =   0.1111111
        k(   16) = (  -0.5000000  -0.5000000  -0.5000000), wk =   0.0092593

     Check: negative core charge=   -0.000080

     Initial potential from superposition of free atoms

     starting charge   15.99956, renormalised to   16.00000
     Starting wfcs are   10 randomized atomic wfcs +    2 random wfcs

     Self-consistent Calculation

     iteration #  1     ecut=    40.00 Ry     beta= 0.70
     Davidson diagonalization with overlap
     ethr =  1.00E-02,  avg # of iterations =  3.9

     Threshold (ethr) on eigenvalues was too large:
     Diagonalizing with lowered threshold

     Davidson diagonalization with overlap
     ethr =  4.79E-04,  avg # of iterations =  1.0

     total energy              =    -247.52808857 Ry
     Harris-Foulkes estimate   =    -247.58632968 Ry
     estimated scf accuracy    <       0.07935220 Ry

[...]

     total energy              =    -247.57295192 Ry
     Harris-Foulkes estimate   =    -247.57296798 Ry
     estimated scf accuracy    <       0.00005078 Ry

     iteration #  5     ecut=    40.00 Ry     beta= 0.70
     Davidson diagonalization with overlap
     ethr =  3.17E-07,  avg # of iterations =  1.8

     End of self-consistent calculation

          k = 0.0000 0.0000 0.0000 (   321 PWs)   bands (ev):

   -69.8506 -35.4798 -35.4798 -35.4798   9.2383  16.2190  16.2190  16.2190
    17.8405  17.8405  41.4928  41.4928

     occupation numbers
     1.0000   1.0000   1.0000   1.0000   1.0000   1.0000   1.0000   1.0000
     0.1965   0.1965   0.0000   0.0000

[...]

          k =-0.4330-0.4330 0.0000 (   340 PWs)   bands (ev):

[...]

          k = 0.0000 0.0000 0.2887 (   349 PWs)   bands (ev):

[...]

          k =-0.8660-0.8660-0.8660 (   370 PWs)   bands (ev):

   -69.7409 -35.8592 -35.8592 -35.8592  13.5839  13.5839  18.3817  18.3817
    18.3817  27.0484  27.0484  27.0484

     occupation numbers
     1.0000   1.0000   1.0000   1.0000   1.0000   1.0000   0.0001   0.0001
     0.0001   0.0000   0.0000   0.0000

     the Fermi energy is    17.6761 ev

!    total energy              =    -247.57295970 Ry
     Harris-Foulkes estimate   =    -247.57295966 Ry
     estimated scf accuracy    <       0.00000017 Ry

     The total energy is the sum of the following terms:

     one-electron contribution =    -114.10197246 Ry
     hartree contribution      =      65.89555591 Ry
     xc contribution           =     -27.57760648 Ry
     ewald contribution        =    -171.77862231 Ry
     smearing contrib. (-TS)   =      -0.01031435 Ry

     convergence has been achieved in   5 iterations

     Writing output data file fe.save/

     General routines

     Parallel routines

   This run was terminated on:  11:31:28  26May2021

   JOB DONE.